p cnf 
1 2 3 4 5 0
6 7 8 9 10 0
-1 -2 11 0
1 -11 0
2 -11 0
-6 -7 12 0
6 -12 0
7 -12 0
11 12 0
-1 -3 13 0
1 -13 0
3 -13 0
-6 -8 14 0
6 -14 0
8 -14 0
13 14 0
-1 -4 15 0
1 -15 0
4 -15 0
-6 -9 16 0
6 -16 0
9 -16 0
15 16 0
-3 -2 17 0
3 -17 0
2 -17 0
-8 -7 18 0
8 -18 0
7 -18 0
17 18 0
-3 -4 19 0
3 -19 0
4 -19 0
-8 -9 20 0
8 -20 0
9 -20 0
19 20 0
-4 -5 21 0
4 -21 0
5 -21 0
-9 -10 22 0
9 -22 0
10 -22 0
21 22 0
-4 -2 23 0
4 -23 0
2 -23 0
-9 -7 24 0
9 -24 0
7 -24 0
23 24 0
-5 -3 25 0
5 -25 0
3 -25 0
-10 -8 26 0
10 -26 0
8 -26 0
25 26 0
-1 6 27 0
1 -27 0
-6 -27 0
-2 7 28 0
2 -28 0
-7 -28 0
-3 8 29 0
3 -29 0
-8 -29 0
-4 9 30 0
4 -30 0
-9 -30 0
-5 10 31 0
5 -31 0
-10 -31 0
27 28 29 30 31 0
-6 1 32 0
6 -32 0
-1 -32 0
-7 2 33 0
7 -33 0
-2 -33 0
-8 3 34 0
8 -34 0
-3 -34 0
-9 4 35 0
9 -35 0
-4 -35 0
-10 5 36 0
10 -36 0
-5 -36 0
32 33 34 35 36 0
-1 -5 0
-6 -10 0
-2 -5 0
-7 -10 0
